c This formula is used to model the Einstein's Puzzle
c
c    clause length = mixed
c
c    variables count = 150
c    clauses count = 1300
c
c    simple rule clauses = 100
c    proximity rule clauses = 570
c    exactly one rule clauses = 330
c    unique rule clauses = 300
c
p cnf 150 1300
-16 111 0
-111 16 0
-26 211 0
-211 26 0
-36 311 0
-311 36 0
-46 411 0
-411 46 0
-56 511 0
-511 56 0
-112 126 0
-126 112 0
-212 226 0
-226 212 0
-312 326 0
-326 312 0
-412 426 0
-426 412 0
-512 526 0
-526 512 0
-113 116 0
-116 113 0
-213 216 0
-216 213 0
-313 316 0
-316 313 0
-413 416 0
-416 413 0
-513 516 0
-516 513 0
-17 117 0
-117 17 0
-27 217 0
-217 27 0
-37 317 0
-317 37 0
-47 417 0
-417 47 0
-57 517 0
-517 57 0
-121 127 0
-127 121 0
-221 227 0
-227 221 0
-321 327 0
-327 321 0
-421 427 0
-427 421 0
-521 527 0
-527 521 0
-18 122 0
-122 18 0
-28 222 0
-222 28 0
-38 322 0
-322 38 0
-48 422 0
-422 48 0
-58 522 0
-522 58 0
-13 118 0
-118 13 0
-23 218 0
-218 23 0
-33 318 0
-318 33 0
-43 418 0
-418 43 0
-53 518 0
-518 53 0
-11 114 0
-114 11 0
-21 214 0
-214 21 0
-31 314 0
-314 31 0
-41 414 0
-414 41 0
-51 514 0
-514 51 0
-119 124 0
-124 119 0
-219 224 0
-224 219 0
-319 324 0
-324 319 0
-419 424 0
-424 419 0
-519 524 0
-524 519 0
-115 125 0
-125 115 0
-215 225 0
-225 215 0
-315 325 0
-325 315 0
-415 425 0
-425 415 0
-515 525 0
-525 515 0
-123 -128 0
-223 -228 0
-323 -328 0
-423 -428 0
-523 -528 0
-122 -129 0
-222 -229 0
-322 -329 0
-422 -429 0
-522 -529 0
-19 -114 0
-29 -214 0
-39 -314 0
-49 -414 0
-59 -514 0
-120 -123 0
-220 -223 0
-320 -323 0
-420 -423 0
-520 -523 0
-15 -17 0
-25 -27 0
-35 -37 0
-45 -47 0
-55 -57 0
-11 -110 0
-21 -210 0
-31 -310 0
-41 -410 0
-51 -510 0
-11 -17 -22 210
-11 -17 -32 310
-11 -17 -42 410
-11 -17 -52 510
-21 -27 -12 110
-21 -27 -32 310
-21 -27 -42 410
-21 -27 -52 510
-31 -37 -12 110
-31 -37 -22 210
-31 -37 -42 410
-31 -37 -52 510
-41 -47 -12 110
-41 -47 -22 210
-41 -47 -32 310
-41 -47 -52 510
-51 -57 -12 110
-51 -57 -22 210
-51 -57 -32 310
-51 -57 -42 410
-12 -17 -23 210
-12 -17 -33 310
-12 -17 -43 410
-12 -17 -53 510
-22 -27 -13 110
-22 -27 -33 310
-22 -27 -43 410
-22 -27 -53 510
-32 -37 -13 110
-32 -37 -23 210
-32 -37 -43 410
-32 -37 -53 510
-42 -47 -13 110
-42 -47 -23 210
-42 -47 -33 310
-42 -47 -53 510
-52 -57 -13 110
-52 -57 -23 210
-52 -57 -33 310
-52 -57 -43 410
-13 -17 -24 210
-13 -17 -34 310
-13 -17 -44 410
-13 -17 -54 510
-23 -27 -14 110
-23 -27 -34 310
-23 -27 -44 410
-23 -27 -54 510
-33 -37 -14 110
-33 -37 -24 210
-33 -37 -44 410
-33 -37 -54 510
-43 -47 -14 110
-43 -47 -24 210
-43 -47 -34 310
-43 -47 -54 510
-53 -57 -14 110
-53 -57 -24 210
-53 -57 -34 310
-53 -57 -44 410
-14 -17 -25 210
-14 -17 -35 310
-14 -17 -45 410
-14 -17 -55 510
-24 -27 -15 110
-24 -27 -35 310
-24 -27 -45 410
-24 -27 -55 510
-34 -37 -15 110
-34 -37 -25 210
-34 -37 -45 410
-34 -37 -55 510
-44 -47 -15 110
-44 -47 -25 210
-44 -47 -35 310
-44 -47 -55 510
-54 -57 -15 110
-54 -57 -25 210
-54 -57 -35 310
-54 -57 -45 410
-12 17 -23 -210
-12 17 -33 -310
-12 17 -43 -410
-12 17 -53 -510
-22 27 -13 -110
-22 27 -33 -310
-22 27 -43 -410
-22 27 -53 -510
-32 37 -13 -110
-32 37 -23 -210
-32 37 -43 -410
-32 37 -53 -510
-42 47 -13 -110
-42 47 -23 -210
-42 47 -33 -310
-42 47 -53 -510
-52 57 -13 -110
-52 57 -23 -210
-52 57 -33 -310
-52 57 -43 -410
-13 17 -24 -210
-13 17 -34 -310
-13 17 -44 -410
-13 17 -54 -510
-23 27 -14 -110
-23 27 -34 -310
-23 27 -44 -410
-23 27 -54 -510
-33 37 -14 -110
-33 37 -24 -210
-33 37 -44 -410
-33 37 -54 -510
-43 47 -14 -110
-43 47 -24 -210
-43 47 -34 -310
-43 47 -54 -510
-53 57 -14 -110
-53 57 -24 -210
-53 57 -34 -310
-53 57 -44 -410
-14 17 -25 -210
-14 17 -35 -310
-14 17 -45 -410
-14 17 -55 -510
-24 27 -15 -110
-24 27 -35 -310
-24 27 -45 -410
-24 27 -55 -510
-34 37 -15 -110
-34 37 -25 -210
-34 37 -45 -410
-34 37 -55 -510
-44 47 -15 -110
-44 47 -25 -210
-44 47 -35 -310
-44 47 -55 -510
-54 57 -15 -110
-54 57 -25 -210
-54 57 -35 -310
-54 57 -45 -410
-15 17 -22 -210
-15 17 -32 -310
-15 17 -42 -410
-15 17 -52 -510
-25 27 -12 -110
-25 27 -32 -310
-25 27 -42 -410
-25 27 -52 -510
-35 37 -12 -110
-35 37 -22 -210
-35 37 -42 -410
-35 37 -52 -510
-45 47 -12 -110
-45 47 -22 -210
-45 47 -32 -310
-45 47 -52 -510
-55 57 -12 -110
-55 57 -22 -210
-55 57 -32 -310
-55 57 -42 -410
-11 -123 22 -228 0
-11 -123 32 -328 0
-11 -123 42 -428 0
-11 -123 52 -528 0
-12 -123 21 23 -228 0
-12 -123 31 33 -328 0
-12 -123 41 43 -428 0
-12 -123 51 53 -528 0
-13 -123 22 24 -228 0
-13 -123 32 34 -328 0
-13 -123 42 44 -428 0
-13 -123 52 54 -528 0
-14 -123 23 25 -228 0
-14 -123 33 35 -328 0
-14 -123 43 45 -428 0
-14 -123 53 55 -528 0
-15 -123 24 -228 0
-15 -123 34 -328 0
-15 -123 44 -428 0
-15 -123 54 -528 0
-21 -223 12 -128 0
-21 -223 32 -328 0
-21 -223 42 -428 0
-21 -223 52 -528 0
-22 -223 11 13 -128 0
-22 -223 31 33 -328 0
-22 -223 41 43 -428 0
-22 -223 51 53 -528 0
-23 -223 12 14 -128 0
-23 -223 32 34 -328 0
-23 -223 42 44 -428 0
-23 -223 52 54 -528 0
-24 -223 13 15 -128 0
-24 -223 33 35 -328 0
-24 -223 43 45 -428 0
-24 -223 53 55 -528 0
-25 -223 14 -128 0
-25 -223 34 -328 0
-25 -223 44 -428 0
-25 -223 54 -528 0
-31 -323 12 -128 0
-31 -323 22 -228 0
-31 -323 42 -428 0
-31 -323 52 -528 0
-32 -323 11 13 -128 0
-32 -323 21 23 -228 0
-32 -323 41 43 -428 0
-32 -323 51 53 -528 0
-33 -323 12 14 -128 0
-33 -323 22 24 -228 0
-33 -323 42 44 -428 0
-33 -323 52 54 -528 0
-34 -323 13 15 -128 0
-34 -323 23 25 -228 0
-34 -323 43 45 -428 0
-34 -323 53 55 -528 0
-35 -323 14 -128 0
-35 -323 24 -228 0
-35 -323 44 -428 0
-35 -323 54 -528 0
-41 -423 12 -128 0
-41 -423 22 -228 0
-41 -423 32 -328 0
-41 -423 52 -528 0
-42 -423 11 13 -128 0
-42 -423 21 23 -228 0
-42 -423 31 33 -328 0
-42 -423 51 53 -528 0
-43 -423 12 14 -128 0
-43 -423 22 24 -228 0
-43 -423 32 34 -328 0
-43 -423 52 54 -528 0
-44 -423 13 15 -128 0
-44 -423 23 25 -228 0
-44 -423 33 35 -328 0
-44 -423 53 55 -528 0
-45 -423 14 -128 0
-45 -423 24 -228 0
-45 -423 34 -328 0
-45 -423 54 -528 0
-51 -523 12 -128 0
-51 -523 22 -228 0
-51 -523 32 -328 0
-51 -523 42 -428 0
-52 -523 11 13 -128 0
-52 -523 21 23 -228 0
-52 -523 31 33 -328 0
-52 -523 41 43 -428 0
-53 -523 12 14 -128 0
-53 -523 22 24 -228 0
-53 -523 32 34 -328 0
-53 -523 42 44 -428 0
-54 -523 13 15 -128 0
-54 -523 23 25 -228 0
-54 -523 33 35 -328 0
-54 -523 43 45 -428 0
-55 -523 14 -128 0
-55 -523 24 -228 0
-55 -523 34 -328 0
-55 -523 44 -428 0
-11 -122 22 -229 0
-11 -122 32 -329 0
-11 -122 42 -429 0
-11 -122 52 -529 0
-12 -122 21 23 -229 0
-12 -122 31 33 -329 0
-12 -122 41 43 -429 0
-12 -122 51 53 -529 0
-13 -122 22 24 -229 0
-13 -122 32 34 -329 0
-13 -122 42 44 -429 0
-13 -122 52 54 -529 0
-14 -122 23 25 -229 0
-14 -122 33 35 -329 0
-14 -122 43 45 -429 0
-14 -122 53 55 -529 0
-15 -122 24 -229 0
-15 -122 34 -329 0
-15 -122 44 -429 0
-15 -122 54 -529 0
-21 -222 12 -129 0
-21 -222 32 -329 0
-21 -222 42 -429 0
-21 -222 52 -529 0
-22 -222 11 13 -129 0
-22 -222 31 33 -329 0
-22 -222 41 43 -429 0
-22 -222 51 53 -529 0
-23 -222 12 14 -129 0
-23 -222 32 34 -329 0
-23 -222 42 44 -429 0
-23 -222 52 54 -529 0
-24 -222 13 15 -129 0
-24 -222 33 35 -329 0
-24 -222 43 45 -429 0
-24 -222 53 55 -529 0
-25 -222 14 -129 0
-25 -222 34 -329 0
-25 -222 44 -429 0
-25 -222 54 -529 0
-31 -322 12 -129 0
-31 -322 22 -229 0
-31 -322 42 -429 0
-31 -322 52 -529 0
-32 -322 11 13 -129 0
-32 -322 21 23 -229 0
-32 -322 41 43 -429 0
-32 -322 51 53 -529 0
-33 -322 12 14 -129 0
-33 -322 22 24 -229 0
-33 -322 42 44 -429 0
-33 -322 52 54 -529 0
-34 -322 13 15 -129 0
-34 -322 23 25 -229 0
-34 -322 43 45 -429 0
-34 -322 53 55 -529 0
-35 -322 14 -129 0
-35 -322 24 -229 0
-35 -322 44 -429 0
-35 -322 54 -529 0
-41 -422 12 -129 0
-41 -422 22 -229 0
-41 -422 32 -329 0
-41 -422 52 -529 0
-42 -422 11 13 -129 0
-42 -422 21 23 -229 0
-42 -422 31 33 -329 0
-42 -422 51 53 -529 0
-43 -422 12 14 -129 0
-43 -422 22 24 -229 0
-43 -422 32 34 -329 0
-43 -422 52 54 -529 0
-44 -422 13 15 -129 0
-44 -422 23 25 -229 0
-44 -422 33 35 -329 0
-44 -422 53 55 -529 0
-45 -422 14 -129 0
-45 -422 24 -229 0
-45 -422 34 -329 0
-45 -422 54 -529 0
-51 -522 12 -129 0
-51 -522 22 -229 0
-51 -522 32 -329 0
-51 -522 42 -429 0
-52 -522 11 13 -129 0
-52 -522 21 23 -229 0
-52 -522 31 33 -329 0
-52 -522 41 43 -429 0
-53 -522 12 14 -129 0
-53 -522 22 24 -229 0
-53 -522 32 34 -329 0
-53 -522 42 44 -429 0
-54 -522 13 15 -129 0
-54 -522 23 25 -229 0
-54 -522 33 35 -329 0
-54 -522 43 45 -429 0
-55 -522 14 -129 0
-55 -522 24 -229 0
-55 -522 34 -329 0
-55 -522 44 -429 0
-11 -19 22 -214 0
-11 -19 32 -314 0
-11 -19 42 -414 0
-11 -19 52 -514 0
-12 -19 21 23 -214 0
-12 -19 31 33 -314 0
-12 -19 41 43 -414 0
-12 -19 51 53 -514 0
-13 -19 22 24 -214 0
-13 -19 32 34 -314 0
-13 -19 42 44 -414 0
-13 -19 52 54 -514 0
-14 -19 23 25 -214 0
-14 -19 33 35 -314 0
-14 -19 43 45 -414 0
-14 -19 53 55 -514 0
-15 -19 24 -214 0
-15 -19 34 -314 0
-15 -19 44 -414 0
-15 -19 54 -514 0
-21 -29 12 -114 0
-21 -29 32 -314 0
-21 -29 42 -414 0
-21 -29 52 -514 0
-22 -29 11 13 -114 0
-22 -29 31 33 -314 0
-22 -29 41 43 -414 0
-22 -29 51 53 -514 0
-23 -29 12 14 -114 0
-23 -29 32 34 -314 0
-23 -29 42 44 -414 0
-23 -29 52 54 -514 0
-24 -29 13 15 -114 0
-24 -29 33 35 -314 0
-24 -29 43 45 -414 0
-24 -29 53 55 -514 0
-25 -29 14 -114 0
-25 -29 34 -314 0
-25 -29 44 -414 0
-25 -29 54 -514 0
-31 -39 12 -114 0
-31 -39 22 -214 0
-31 -39 42 -414 0
-31 -39 52 -514 0
-32 -39 11 13 -114 0
-32 -39 21 23 -214 0
-32 -39 41 43 -414 0
-32 -39 51 53 -514 0
-33 -39 12 14 -114 0
-33 -39 22 24 -214 0
-33 -39 42 44 -414 0
-33 -39 52 54 -514 0
-34 -39 13 15 -114 0
-34 -39 23 25 -214 0
-34 -39 43 45 -414 0
-34 -39 53 55 -514 0
-35 -39 14 -114 0
-35 -39 24 -214 0
-35 -39 44 -414 0
-35 -39 54 -514 0
-41 -49 12 -114 0
-41 -49 22 -214 0
-41 -49 32 -314 0
-41 -49 52 -514 0
-42 -49 11 13 -114 0
-42 -49 21 23 -214 0
-42 -49 31 33 -314 0
-42 -49 51 53 -514 0
-43 -49 12 14 -114 0
-43 -49 22 24 -214 0
-43 -49 32 34 -314 0
-43 -49 52 54 -514 0
-44 -49 13 15 -114 0
-44 -49 23 25 -214 0
-44 -49 33 35 -314 0
-44 -49 53 55 -514 0
-45 -49 14 -114 0
-45 -49 24 -214 0
-45 -49 34 -314 0
-45 -49 54 -514 0
-51 -59 12 -114 0
-51 -59 22 -214 0
-51 -59 32 -314 0
-51 -59 42 -414 0
-52 -59 11 13 -114 0
-52 -59 21 23 -214 0
-52 -59 31 33 -314 0
-52 -59 41 43 -414 0
-53 -59 12 14 -114 0
-53 -59 22 24 -214 0
-53 -59 32 34 -314 0
-53 -59 42 44 -414 0
-54 -59 13 15 -114 0
-54 -59 23 25 -214 0
-54 -59 33 35 -314 0
-54 -59 43 45 -414 0
-55 -59 14 -114 0
-55 -59 24 -214 0
-55 -59 34 -314 0
-55 -59 44 -414 0
-11 -120 22 -223 0
-11 -120 32 -323 0
-11 -120 42 -423 0
-11 -120 52 -523 0
-12 -120 21 23 -223 0
-12 -120 31 33 -323 0
-12 -120 41 43 -423 0
-12 -120 51 53 -523 0
-13 -120 22 24 -223 0
-13 -120 32 34 -323 0
-13 -120 42 44 -423 0
-13 -120 52 54 -523 0
-14 -120 23 25 -223 0
-14 -120 33 35 -323 0
-14 -120 43 45 -423 0
-14 -120 53 55 -523 0
-15 -120 24 -223 0
-15 -120 34 -323 0
-15 -120 44 -423 0
-15 -120 54 -523 0
-21 -220 12 -123 0
-21 -220 32 -323 0
-21 -220 42 -423 0
-21 -220 52 -523 0
-22 -220 11 13 -123 0
-22 -220 31 33 -323 0
-22 -220 41 43 -423 0
-22 -220 51 53 -523 0
-23 -220 12 14 -123 0
-23 -220 32 34 -323 0
-23 -220 42 44 -423 0
-23 -220 52 54 -523 0
-24 -220 13 15 -123 0
-24 -220 33 35 -323 0
-24 -220 43 45 -423 0
-24 -220 53 55 -523 0
-25 -220 14 -123 0
-25 -220 34 -323 0
-25 -220 44 -423 0
-25 -220 54 -523 0
-31 -320 12 -123 0
-31 -320 22 -223 0
-31 -320 42 -423 0
-31 -320 52 -523 0
-32 -320 11 13 -123 0
-32 -320 21 23 -223 0
-32 -320 41 43 -423 0
-32 -320 51 53 -523 0
-33 -320 12 14 -123 0
-33 -320 22 24 -223 0
-33 -320 42 44 -423 0
-33 -320 52 54 -523 0
-34 -320 13 15 -123 0
-34 -320 23 25 -223 0
-34 -320 43 45 -423 0
-34 -320 53 55 -523 0
-35 -320 14 -123 0
-35 -320 24 -223 0
-35 -320 44 -423 0
-35 -320 54 -523 0
-41 -420 12 -123 0
-41 -420 22 -223 0
-41 -420 32 -323 0
-41 -420 52 -523 0
-42 -420 11 13 -123 0
-42 -420 21 23 -223 0
-42 -420 31 33 -323 0
-42 -420 51 53 -523 0
-43 -420 12 14 -123 0
-43 -420 22 24 -223 0
-43 -420 32 34 -323 0
-43 -420 52 54 -523 0
-44 -420 13 15 -123 0
-44 -420 23 25 -223 0
-44 -420 33 35 -323 0
-44 -420 53 55 -523 0
-45 -420 14 -123 0
-45 -420 24 -223 0
-45 -420 34 -323 0
-45 -420 54 -523 0
-51 -520 12 -123 0
-51 -520 22 -223 0
-51 -520 32 -323 0
-51 -520 42 -423 0
-52 -520 11 13 -123 0
-52 -520 21 23 -223 0
-52 -520 31 33 -323 0
-52 -520 41 43 -423 0
-53 -520 12 14 -123 0
-53 -520 22 24 -223 0
-53 -520 32 34 -323 0
-53 -520 42 44 -423 0
-54 -520 13 15 -123 0
-54 -520 23 25 -223 0
-54 -520 33 35 -323 0
-54 -520 43 45 -423 0
-55 -520 14 -123 0
-55 -520 24 -223 0
-55 -520 34 -323 0
-55 -520 44 -423 0
11 12 13 14 15 0
-11 -12 0
-11 -13 0
-11 -14 0
-11 -15 0
-12 -13 0
-12 -14 0
-12 -15 0
-13 -14 0
-13 -15 0
-14 -15 0
21 22 23 24 25 0
-21 -22 0
-21 -23 0
-21 -24 0
-21 -25 0
-22 -23 0
-22 -24 0
-22 -25 0
-23 -24 0
-23 -25 0
-24 -25 0
31 32 33 34 35 0
-31 -32 0
-31 -33 0
-31 -34 0
-31 -35 0
-32 -33 0
-32 -34 0
-32 -35 0
-33 -34 0
-33 -35 0
-34 -35 0
41 42 43 44 45 0
-41 -42 0
-41 -43 0
-41 -44 0
-41 -45 0
-42 -43 0
-42 -44 0
-42 -45 0
-43 -44 0
-43 -45 0
-44 -45 0
51 52 53 54 55 0
-51 -52 0
-51 -53 0
-51 -54 0
-51 -55 0
-52 -53 0
-52 -54 0
-52 -55 0
-53 -54 0
-53 -55 0
-54 -55 0
16 17 18 19 110 0
-16 -17 0
-16 -18 0
-16 -19 0
-16 -110 0
-17 -18 0
-17 -19 0
-17 -110 0
-18 -19 0
-18 -110 0
-19 -110 0
26 27 28 29 210 0
-26 -27 0
-26 -28 0
-26 -29 0
-26 -210 0
-27 -28 0
-27 -29 0
-27 -210 0
-28 -29 0
-28 -210 0
-29 -210 0
36 37 38 39 310 0
-36 -37 0
-36 -38 0
-36 -39 0
-36 -310 0
-37 -38 0
-37 -39 0
-37 -310 0
-38 -39 0
-38 -310 0
-39 -310 0
46 47 48 49 410 0
-46 -47 0
-46 -48 0
-46 -49 0
-46 -410 0
-47 -48 0
-47 -49 0
-47 -410 0
-48 -49 0
-48 -410 0
-49 -410 0
56 57 58 59 510 0
-56 -57 0
-56 -58 0
-56 -59 0
-56 -510 0
-57 -58 0
-57 -59 0
-57 -510 0
-58 -59 0
-58 -510 0
-59 -510 0
111 112 113 114 115 0
-111 -112 0
-111 -113 0
-111 -114 0
-111 -115 0
-112 -113 0
-112 -114 0
-112 -115 0
-113 -114 0
-113 -115 0
-114 -115 0
211 212 213 214 215 0
-211 -212 0
-211 -213 0
-211 -214 0
-211 -215 0
-212 -213 0
-212 -214 0
-212 -215 0
-213 -214 0
-213 -215 0
-214 -215 0
311 312 313 314 315 0
-311 -312 0
-311 -313 0
-311 -314 0
-311 -315 0
-312 -313 0
-312 -314 0
-312 -315 0
-313 -314 0
-313 -315 0
-314 -315 0
411 412 413 414 415 0
-411 -412 0
-411 -413 0
-411 -414 0
-411 -415 0
-412 -413 0
-412 -414 0
-412 -415 0
-413 -414 0
-413 -415 0
-414 -415 0
511 512 513 514 515 0
-511 -512 0
-511 -513 0
-511 -514 0
-511 -515 0
-512 -513 0
-512 -514 0
-512 -515 0
-513 -514 0
-513 -515 0
-514 -515 0
116 117 118 119 120 0
-116 -117 0
-116 -118 0
-116 -119 0
-116 -120 0
-117 -118 0
-117 -119 0
-117 -120 0
-118 -119 0
-118 -120 0
-119 -120 0
216 217 218 219 220 0
-216 -217 0
-216 -218 0
-216 -219 0
-216 -220 0
-217 -218 0
-217 -219 0
-217 -220 0
-218 -219 0
-218 -220 0
-219 -220 0
316 317 318 319 320 0
-316 -317 0
-316 -318 0
-316 -319 0
-316 -320 0
-317 -318 0
-317 -319 0
-317 -320 0
-318 -319 0
-318 -320 0
-319 -320 0
416 417 418 419 420 0
-416 -417 0
-416 -418 0
-416 -419 0
-416 -420 0
-417 -418 0
-417 -419 0
-417 -420 0
-418 -419 0
-418 -420 0
-419 -420 0
516 517 518 519 520 0
-516 -517 0
-516 -518 0
-516 -519 0
-516 -520 0
-517 -518 0
-517 -519 0
-517 -520 0
-518 -519 0
-518 -520 0
-519 -520 0
121 122 123 124 125 0
-121 -122 0
-121 -123 0
-121 -124 0
-121 -125 0
-122 -123 0
-122 -124 0
-122 -125 0
-123 -124 0
-123 -125 0
-124 -125 0
221 222 223 224 225 0
-221 -222 0
-221 -223 0
-221 -224 0
-221 -225 0
-222 -223 0
-222 -224 0
-222 -225 0
-223 -224 0
-223 -225 0
-224 -225 0
321 322 323 324 325 0
-321 -322 0
-321 -323 0
-321 -324 0
-321 -325 0
-322 -323 0
-322 -324 0
-322 -325 0
-323 -324 0
-323 -325 0
-324 -325 0
421 422 423 424 425 0
-421 -422 0
-421 -423 0
-421 -424 0
-421 -425 0
-422 -423 0
-422 -424 0
-422 -425 0
-423 -424 0
-423 -425 0
-424 -425 0
521 522 523 524 525 0
-521 -522 0
-521 -523 0
-521 -524 0
-521 -525 0
-522 -523 0
-522 -524 0
-522 -525 0
-523 -524 0
-523 -525 0
-524 -525 0
126 127 128 129 130 0
-126 -127 0
-126 -128 0
-126 -129 0
-126 -130 0
-127 -128 0
-127 -129 0
-127 -130 0
-128 -129 0
-128 -130 0
-129 -130 0
226 227 228 229 230 0
-226 -227 0
-226 -228 0
-226 -229 0
-226 -230 0
-227 -228 0
-227 -229 0
-227 -230 0
-228 -229 0
-228 -230 0
-229 -230 0
326 327 328 329 330 0
-326 -327 0
-326 -328 0
-326 -329 0
-326 -330 0
-327 -328 0
-327 -329 0
-327 -330 0
-328 -329 0
-328 -330 0
-329 -330 0
426 427 428 429 430 0
-426 -427 0
-426 -428 0
-426 -429 0
-426 -430 0
-427 -428 0
-427 -429 0
-427 -430 0
-428 -429 0
-428 -430 0
-429 -430 0
526 527 528 529 530 0
-526 -527 0
-526 -528 0
-526 -529 0
-526 -530 0
-527 -528 0
-527 -529 0
-527 -530 0
-528 -529 0
-528 -530 0
-529 -530 0
-11 -21 0
-11 -31 0
-11 -41 0
-11 -51 0
-21 -31 0
-21 -41 0
-21 -51 0
-31 -41 0
-31 -51 0
-41 -51 0
-12 -22 0
-12 -32 0
-12 -42 0
-12 -52 0
-22 -32 0
-22 -42 0
-22 -52 0
-32 -42 0
-32 -52 0
-42 -52 0
-13 -23 0
-13 -33 0
-13 -43 0
-13 -53 0
-23 -33 0
-23 -43 0
-23 -53 0
-33 -43 0
-33 -53 0
-43 -53 0
-14 -24 0
-14 -34 0
-14 -44 0
-14 -54 0
-24 -34 0
-24 -44 0
-24 -54 0
-34 -44 0
-34 -54 0
-44 -54 0
-15 -25 0
-15 -35 0
-15 -45 0
-15 -55 0
-25 -35 0
-25 -45 0
-25 -55 0
-35 -45 0
-35 -55 0
-45 -55 0
-16 -26 0
-16 -36 0
-16 -46 0
-16 -56 0
-26 -36 0
-26 -46 0
-26 -56 0
-36 -46 0
-36 -56 0
-46 -56 0
-17 -27 0
-17 -37 0
-17 -47 0
-17 -57 0
-27 -37 0
-27 -47 0
-27 -57 0
-37 -47 0
-37 -57 0
-47 -57 0
-18 -28 0
-18 -38 0
-18 -48 0
-18 -58 0
-28 -38 0
-28 -48 0
-28 -58 0
-38 -48 0
-38 -58 0
-48 -58 0
-19 -29 0
-19 -39 0
-19 -49 0
-19 -59 0
-29 -39 0
-29 -49 0
-29 -59 0
-39 -49 0
-39 -59 0
-49 -59 0
-110 -210 0
-110 -310 0
-110 -410 0
-110 -510 0
-210 -310 0
-210 -410 0
-210 -510 0
-310 -410 0
-310 -510 0
-410 -510 0
-111 -211 0
-111 -311 0
-111 -411 0
-111 -511 0
-211 -311 0
-211 -411 0
-211 -511 0
-311 -411 0
-311 -511 0
-411 -511 0
-112 -212 0
-112 -312 0
-112 -412 0
-112 -512 0
-212 -312 0
-212 -412 0
-212 -512 0
-312 -412 0
-312 -512 0
-412 -512 0
-113 -213 0
-113 -313 0
-113 -413 0
-113 -513 0
-213 -313 0
-213 -413 0
-213 -513 0
-313 -413 0
-313 -513 0
-413 -513 0
-114 -214 0
-114 -314 0
-114 -414 0
-114 -514 0
-214 -314 0
-214 -414 0
-214 -514 0
-314 -414 0
-314 -514 0
-414 -514 0
-115 -215 0
-115 -315 0
-115 -415 0
-115 -515 0
-215 -315 0
-215 -415 0
-215 -515 0
-315 -415 0
-315 -515 0
-415 -515 0
-116 -216 0
-116 -316 0
-116 -416 0
-116 -516 0
-216 -316 0
-216 -416 0
-216 -516 0
-316 -416 0
-316 -516 0
-416 -516 0
-117 -217 0
-117 -317 0
-117 -417 0
-117 -517 0
-217 -317 0
-217 -417 0
-217 -517 0
-317 -417 0
-317 -517 0
-417 -517 0
-118 -218 0
-118 -318 0
-118 -418 0
-118 -518 0
-218 -318 0
-218 -418 0
-218 -518 0
-318 -418 0
-318 -518 0
-418 -518 0
-119 -219 0
-119 -319 0
-119 -419 0
-119 -519 0
-219 -319 0
-219 -419 0
-219 -519 0
-319 -419 0
-319 -519 0
-419 -519 0
-120 -220 0
-120 -320 0
-120 -420 0
-120 -520 0
-220 -320 0
-220 -420 0
-220 -520 0
-320 -420 0
-320 -520 0
-420 -520 0
-121 -221 0
-121 -321 0
-121 -421 0
-121 -521 0
-221 -321 0
-221 -421 0
-221 -521 0
-321 -421 0
-321 -521 0
-421 -521 0
-122 -222 0
-122 -322 0
-122 -422 0
-122 -522 0
-222 -322 0
-222 -422 0
-222 -522 0
-322 -422 0
-322 -522 0
-422 -522 0
-123 -223 0
-123 -323 0
-123 -423 0
-123 -523 0
-223 -323 0
-223 -423 0
-223 -523 0
-323 -423 0
-323 -523 0
-423 -523 0
-124 -224 0
-124 -324 0
-124 -424 0
-124 -524 0
-224 -324 0
-224 -424 0
-224 -524 0
-324 -424 0
-324 -524 0
-424 -524 0
-125 -225 0
-125 -325 0
-125 -425 0
-125 -525 0
-225 -325 0
-225 -425 0
-225 -525 0
-325 -425 0
-325 -525 0
-425 -525 0
-126 -226 0
-126 -326 0
-126 -426 0
-126 -526 0
-226 -326 0
-226 -426 0
-226 -526 0
-326 -426 0
-326 -526 0
-426 -526 0
-127 -227 0
-127 -327 0
-127 -427 0
-127 -527 0
-227 -327 0
-227 -427 0
-227 -527 0
-327 -427 0
-327 -527 0
-427 -527 0
-128 -228 0
-128 -328 0
-128 -428 0
-128 -528 0
-228 -328 0
-228 -428 0
-228 -528 0
-328 -428 0
-328 -528 0
-428 -528 0
-129 -229 0
-129 -329 0
-129 -429 0
-129 -529 0
-229 -329 0
-229 -429 0
-229 -529 0
-329 -429 0
-329 -529 0
-429 -529 0
-130 -230 0
-130 -330 0
-130 -430 0
-130 -530 0
-230 -330 0
-230 -430 0
-230 -530 0
-330 -430 0
-330 -530 0
-430 -530 0